
<<< setup


<<< generate

Version identifier: 22.1.1.0 | 2022-11-28 | 9160aff4d
CPXPARAM_TimeLimit                               1800
Found incumbent of value 0.000000 after 0.00 sec. (0.00 ticks)
Tried aggregator 1 time.
MIP Presolve eliminated 12 rows and 0 columns.
MIP Presolve modified 120 coefficients.
Reduced MIP has 76 rows, 78 columns, and 276 nonzeros.
Reduced MIP has 66 binaries, 12 generals, 0 SOSs, and 0 indicators.
Presolve time = 0.00 sec. (0.15 ticks)
Probing time = 0.00 sec. (0.07 ticks)
Tried aggregator 1 time.
Detecting symmetries...
Reduced MIP has 76 rows, 78 columns, and 276 nonzeros.
Reduced MIP has 66 binaries, 12 generals, 0 SOSs, and 0 indicators.
Presolve time = 0.00 sec. (0.25 ticks)
Probing time = 0.00 sec. (0.07 ticks)
Clique table members: 150.
MIP emphasis: balance optimality and feasibility.
MIP search method: dynamic search.
Parallel mode: deterministic, using up to 8 threads.
Root relaxation solution time = 0.00 sec. (0.16 ticks)

        Nodes                                         Cuts/
   Node  Left     Objective  IInf  Best Integer    Best Bound    ItCnt     Gap

*     0+    0                            0.0000       12.0000              --- 
*     0+    0                            4.0000       12.0000           200.00%
      0     0       10.0000    18        4.0000       10.0000       10  150.00%
*     0+    0                            6.0000       10.0000            66.67%
*     0     0      integral     0       10.0000    Cliques: 1       11    0.00%
      0     0        cutoff             10.0000       10.0000       11    0.00%
Elapsed time = 0.00 sec. (2.08 ticks, tree = 0.01 MB, solutions = 4)

Clique cuts applied:  1

Root node processing (before b&c):
  Real time             =    0.00 sec. (2.09 ticks)
Parallel b&c, 8 threads:
  Real time             =    0.00 sec. (0.00 ticks)
  Sync time (average)   =    0.00 sec.
  Wait time (average)   =    0.00 sec.
                          ------------
Total (root+branch&cut) =    0.00 sec. (2.09 ticks)

<<< solve


OBJECTIVE: 10

<<< post process


<<< done

